param n := 60;
param c := 3000
param : V : p w :=
   0	  71	 366
   1	   5	 268
   2	  68	 366
   3	  31	 430
   4	  55	 263
   5	  45	 307
   6	  75	 414
   7	  11	 287
   8	  25	 299
   9	  70	 495
  10	  99	 251
  11	  75	 254
  12	  83	 474
  13	  15	 252
  14	  58	 274
  15	  97	 370
  16	  72	 269
  17	  35	 361
  18	  60	 473
  19	  11	 252
  20	  66	 275
  21	  60	 472
  22	  73	 259
  23	   3	 269
  24	   6	 444
  25	  57	 258
  26	  48	 298
  27	  99	 439
  28	  47	 273
  29	  81	 288
  30	  47	 445
  31	  84	 272
  32	  99	 283
  33	  56	 419
  34	  75	 261
  35	   5	 320
  36	  94	 363
  37	  12	 271
  38	  45	 366
  39	  90	 355
  40	  65	 273
  41	   2	 372
  42	  40	 466
  43	  83	 262
  44	  10	 272
  45	  43	 357
  46	  34	 292
  47	  35	 351
  48	  79	 395
  49	  16	 255
  50	  39	 350
  51	   3	 350
  52	  47	 303
  53	  61	 347
  54	  30	 450
  55	  39	 252
  56	  25	 298
  57	  71	 410
  58	  94	 275
  59	  72	 315
;

set E :=
   0	   2
   0	   7
   0	  10
   0	  11
   0	  15
   0	  18
   0	  19
   0	  24
   0	  25
   0	  26
   0	  27
   0	  33
   0	  35
   0	  40
   0	  41
   0	  42
   0	  45
   0	  46
   0	  53
   0	  54
   0	  55
   1	   2
   1	   3
   1	  10
   1	  13
   1	  14
   1	  17
   1	  20
   1	  22
   1	  26
   1	  29
   1	  30
   1	  33
   1	  34
   1	  37
   1	  42
   1	  44
   1	  45
   1	  48
   1	  49
   1	  53
   1	  54
   1	  56
   1	  57
   1	  59
   2	   6
   2	   8
   2	  10
   2	  11
   2	  12
   2	  15
   2	  16
   2	  17
   2	  18
   2	  20
   2	  24
   2	  25
   2	  26
   2	  31
   2	  34
   2	  36
   2	  37
   2	  40
   2	  42
   2	  44
   2	  45
   2	  47
   2	  49
   2	  55
   2	  59
   3	  20
   3	  25
   3	  26
   3	  27
   3	  29
   3	  32
   3	  34
   3	  36
   3	  39
   3	  41
   3	  42
   3	  44
   3	  45
   3	  46
   3	  50
   3	  51
   3	  52
   3	  56
   3	  58
   4	   5
   4	   6
   4	   8
   4	   9
   4	  10
   4	  17
   4	  19
   4	  20
   4	  23
   4	  24
   4	  28
   4	  29
   4	  31
   4	  37
   4	  39
   4	  40
   4	  41
   4	  45
   4	  48
   4	  49
   4	  51
   4	  56
   5	   7
   5	  17
   5	  21
   5	  22
   5	  24
   5	  25
   5	  28
   5	  29
   5	  35
   5	  38
   5	  40
   5	  46
   5	  47
   5	  53
   5	  55
   5	  58
   5	  59
   6	   8
   6	  10
   6	  11
   6	  13
   6	  15
   6	  19
   6	  22
   6	  24
   6	  31
   6	  32
   6	  35
   6	  38
   6	  39
   6	  40
   6	  41
   6	  44
   6	  45
   6	  46
   6	  47
   6	  50
   6	  51
   6	  52
   6	  53
   6	  56
   6	  59
   7	   8
   7	   9
   7	  11
   7	  12
   7	  13
   7	  21
   7	  24
   7	  28
   7	  29
   7	  30
   7	  35
   7	  36
   7	  37
   7	  39
   7	  41
   7	  44
   7	  45
   7	  48
   7	  49
   7	  50
   7	  51
   7	  52
   7	  53
   7	  58
   7	  59
   8	  10
   8	  11
   8	  12
   8	  17
   8	  19
   8	  20
   8	  21
   8	  22
   8	  23
   8	  24
   8	  25
   8	  30
   8	  31
   8	  32
   8	  33
   8	  35
   8	  36
   8	  37
   8	  38
   8	  44
   8	  46
   8	  49
   8	  50
   8	  55
   9	  11
   9	  13
   9	  14
   9	  15
   9	  17
   9	  22
   9	  24
   9	  29
   9	  32
   9	  33
   9	  37
   9	  38
   9	  40
   9	  43
   9	  44
   9	  45
   9	  46
   9	  47
   9	  48
   9	  49
   9	  50
   9	  53
   9	  55
   9	  58
   9	  59
  10	  12
  10	  13
  10	  14
  10	  16
  10	  21
  10	  24
  10	  27
  10	  28
  10	  32
  10	  37
  10	  38
  10	  40
  10	  42
  10	  50
  10	  51
  10	  52
  10	  53
  10	  55
  10	  56
  10	  57
  10	  58
  10	  59
  11	  12
  11	  13
  11	  14
  11	  15
  11	  16
  11	  18
  11	  20
  11	  21
  11	  22
  11	  24
  11	  27
  11	  28
  11	  30
  11	  33
  11	  38
  11	  39
  11	  42
  11	  46
  11	  47
  11	  48
  11	  49
  11	  51
  11	  52
  11	  53
  11	  57
  11	  58
  12	  15
  12	  20
  12	  21
  12	  22
  12	  27
  12	  35
  12	  37
  12	  38
  12	  41
  12	  44
  12	  45
  12	  48
  12	  49
  12	  50
  12	  51
  12	  53
  12	  54
  12	  58
  13	  15
  13	  17
  13	  20
  13	  21
  13	  22
  13	  23
  13	  24
  13	  25
  13	  26
  13	  27
  13	  28
  13	  29
  13	  37
  13	  40
  13	  44
  13	  45
  13	  47
  13	  55
  13	  56
  13	  59
  14	  15
  14	  22
  14	  25
  14	  28
  14	  30
  14	  32
  14	  33
  14	  34
  14	  43
  14	  46
  14	  48
  14	  49
  14	  50
  14	  53
  14	  56
  14	  57
  15	  16
  15	  17
  15	  19
  15	  21
  15	  23
  15	  24
  15	  26
  15	  27
  15	  33
  15	  35
  15	  36
  15	  37
  15	  38
  15	  40
  15	  43
  15	  47
  15	  48
  15	  50
  15	  51
  15	  52
  15	  54
  15	  56
  15	  57
  15	  58
  15	  59
  16	  18
  16	  21
  16	  23
  16	  30
  16	  32
  16	  33
  16	  37
  16	  39
  16	  41
  16	  43
  16	  44
  16	  45
  16	  46
  16	  48
  16	  51
  16	  57
  16	  58
  17	  19
  17	  20
  17	  22
  17	  23
  17	  27
  17	  29
  17	  31
  17	  32
  17	  33
  17	  35
  17	  39
  17	  40
  17	  44
  17	  47
  17	  49
  17	  50
  17	  52
  17	  53
  17	  54
  17	  55
  18	  19
  18	  21
  18	  23
  18	  24
  18	  26
  18	  28
  18	  30
  18	  33
  18	  38
  18	  39
  18	  41
  18	  42
  18	  43
  18	  46
  18	  48
  18	  49
  18	  50
  18	  51
  18	  54
  18	  55
  18	  57
  19	  20
  19	  21
  19	  23
  19	  25
  19	  28
  19	  31
  19	  34
  19	  36
  19	  41
  19	  42
  19	  44
  19	  45
  19	  46
  19	  50
  19	  51
  19	  54
  19	  55
  19	  58
  20	  21
  20	  25
  20	  27
  20	  29
  20	  30
  20	  31
  20	  37
  20	  44
  20	  45
  20	  49
  20	  50
  20	  51
  20	  54
  20	  56
  20	  57
  20	  59
  21	  30
  21	  31
  21	  32
  21	  33
  21	  40
  21	  41
  21	  46
  21	  47
  21	  48
  21	  53
  21	  56
  21	  58
  22	  26
  22	  27
  22	  28
  22	  29
  22	  30
  22	  37
  22	  39
  22	  40
  22	  42
  22	  44
  22	  47
  22	  49
  22	  53
  22	  57
  23	  26
  23	  29
  23	  31
  23	  32
  23	  33
  23	  35
  23	  50
  23	  51
  23	  55
  23	  56
  24	  25
  24	  29
  24	  34
  24	  35
  24	  42
  24	  44
  24	  46
  24	  47
  24	  54
  24	  55
  24	  59
  25	  28
  25	  30
  25	  32
  25	  33
  25	  34
  25	  37
  25	  40
  25	  41
  25	  47
  25	  48
  25	  53
  25	  54
  25	  55
  26	  27
  26	  28
  26	  35
  26	  36
  26	  38
  26	  41
  26	  43
  26	  44
  26	  45
  26	  47
  26	  50
  26	  52
  26	  53
  26	  54
  26	  57
  27	  30
  27	  31
  27	  34
  27	  36
  27	  40
  27	  44
  27	  45
  27	  46
  27	  48
  27	  50
  27	  55
  28	  29
  28	  33
  28	  34
  28	  35
  28	  36
  28	  39
  28	  40
  28	  43
  28	  47
  28	  48
  28	  51
  28	  53
  28	  54
  28	  55
  28	  58
  28	  59
  29	  36
  29	  37
  29	  39
  29	  40
  29	  42
  29	  43
  29	  49
  29	  56
  29	  58
  30	  31
  30	  36
  30	  39
  30	  41
  30	  45
  30	  47
  30	  48
  30	  50
  30	  51
  30	  52
  30	  53
  30	  54
  30	  55
  30	  56
  30	  58
  30	  59
  31	  34
  31	  35
  31	  37
  31	  38
  31	  39
  31	  40
  31	  42
  31	  43
  31	  44
  31	  45
  31	  46
  31	  52
  31	  53
  31	  54
  31	  56
  31	  58
  32	  35
  32	  36
  32	  41
  32	  42
  32	  43
  32	  45
  32	  46
  32	  48
  32	  49
  32	  50
  32	  52
  32	  54
  32	  57
  32	  58
  33	  34
  33	  42
  33	  44
  33	  46
  33	  47
  33	  48
  33	  55
  33	  56
  34	  40
  34	  41
  34	  49
  34	  51
  34	  52
  34	  53
  34	  54
  34	  59
  35	  38
  35	  41
  35	  45
  35	  46
  35	  49
  35	  52
  36	  38
  36	  39
  36	  43
  36	  48
  36	  51
  36	  53
  36	  58
  37	  41
  37	  43
  37	  44
  37	  45
  37	  47
  37	  55
  37	  57
  37	  59
  38	  42
  38	  44
  38	  53
  38	  55
  39	  40
  39	  45
  39	  50
  39	  52
  39	  53
  39	  55
  39	  58
  39	  59
  40	  42
  40	  43
  40	  44
  40	  46
  40	  51
  40	  52
  40	  58
  40	  59
  41	  42
  41	  46
  41	  49
  41	  50
  41	  53
  41	  54
  41	  55
  41	  56
  41	  58
  41	  59
  42	  43
  42	  45
  42	  46
  42	  47
  42	  53
  42	  56
  42	  58
  43	  45
  43	  47
  43	  48
  43	  49
  43	  50
  43	  51
  44	  47
  44	  48
  44	  51
  44	  56
  44	  59
  45	  52
  45	  57
  45	  58
  46	  48
  46	  53
  46	  58
  47	  51
  47	  52
  47	  54
  47	  55
  47	  58
  47	  59
  48	  49
  48	  50
  48	  52
  48	  55
  48	  56
  49	  50
  49	  53
  50	  51
  50	  52
  50	  55
  50	  57
  50	  59
  51	  52
  51	  53
  51	  59
  52	  56
  52	  57
  53	  54
  54	  56
  54	  58
;
